\ This file has been generated by DOcplex
\ ENCODING=ISO-8859-1
\Problem name: random_problem.lp

Minimize
 obj: 6 x0 + 6 x1 + x2 - 8 x3 + 3 x4 + 9 x5 + 8 x6 - 3 x7 - 8 x8 + 6 x10 + 4 x11
      + 9 x12 + 2 x13 - 2 x14 + 7 x15 + 3 x16 - 9 x17 + x18 - 6 x19 + 9 x20
      - 6 x21 - 8 x22 - 3 x23 - 5 x24 + 5 x25 + 2 x26 + 2 x27 - 10 x28 + 5 x29
      + 10 x30 + 3 x31 - 3 x32 + 8 x33 - 4 x34 - 9 x35 - 10 x36 - 3 x37 - x38
      - 9 x39 - 2 x40 - 7 x41 - 9 x42 - 3 x43 + 5 x44 + 2 x45 + 3 x46 + 7 x47
      + 5 x49 + x50 - 6 x51 - 2 x52 - 5 x53 - 3 x54 + [ - 6 x0*x6 - 2 x0*x14
      + 10 x0*x17 + 14 x0*x24 - 20 x0*x27 + 20 x0*x29 - 4 x0*x31 - 4 x0*x36
      - 6 x0*x51 - 20 x0*x53 + 2 x1*x6 + 18 x1*x8 + 2 x1*x12 - 16 x1*x18
      + 8 x1*x19 + 16 x1*x21 + 12 x1*x23 - 20 x1*x32 - 12 x1*x35 - 10 x1*x38
      + 6 x2*x11 - 10 x2*x17 - 14 x2*x21 + 20 x2*x22 - 2 x2*x31 - 18 x2*x33
      - 18 x2*x36 + 18 x2*x44 - 16 x2*x49 + 6 x2*x50 + 6 x3*x17 - 12 x3*x18
      + 20 x3*x20 - 4 x3*x30 + 18 x3*x31 + 10 x3*x32 + 4 x3*x34 + 2 x3*x39
      + 8 x3*x47 + 10 x3*x52 - 18 x4*x6 + 12 x4*x15 + 16 x4*x23 + 16 x4*x26
      - 10 x4*x30 - 18 x4*x32 + 8 x4*x41 - 2 x4*x46 - 16 x4*x48 + 16 x4*x51
      - 8 x5*x9 + 14 x5*x17 + 2 x5*x25 - 6 x5*x27 + 18 x5*x32 - 6 x5*x38
      + 20 x5*x41 + 20 x5*x46 - 8 x5*x47 - 16 x5*x48 - 18 x6*x9 - 12 x6*x17
      - 12 x6*x33 + 6 x6*x39 - 12 x6*x46 + 18 x6*x52 + 6 x6*x54 - 4 x7*x11
      - 18 x7*x12 - 12 x7*x13 - 18 x7*x21 + 18 x7*x33 + 12 x7*x38 + 16 x7*x40
      - 14 x7*x44 + 20 x7*x48 + 16 x7*x54 + 6 x8*x9 - 8 x8*x10 - 4 x8*x14
      + 16 x8*x24 + 2 x8*x29 - 16 x8*x38 + 10 x8*x43 + 8 x8*x49 - 10 x8*x52
      - 18 x9*x11 + 20 x9*x22 - 14 x9*x30 - 16 x9*x31 - 12 x9*x41 + 18 x9*x48
      - 20 x9*x52 - 2 x10*x26 + 8 x10*x34 - 12 x10*x35 + 4 x10*x37 - 8 x10*x42
      + 10 x10*x43 - 6 x10*x45 - 12 x10*x50 - 4 x10*x53 - 4 x11*x15 - 6 x11*x17
      + 18 x11*x25 - 6 x11*x30 - 12 x11*x36 + 14 x11*x44 + 8 x11*x45 + 2 x12*x16
      - 2 x12*x17 - 8 x12*x21 + 12 x12*x23 - 14 x12*x26 - 12 x12*x27
      + 16 x12*x30 + 16 x12*x38 + 8 x13*x18 - 12 x13*x21 + 8 x13*x24 + 6 x13*x35
      - 14 x13*x36 + 10 x13*x39 + 6 x13*x43 + 14 x13*x50 - 18 x13*x54
      - 4 x14*x16 + 4 x14*x23 + 18 x14*x37 + 16 x14*x40 - 16 x14*x46 + 8 x14*x48
      - 8 x14*x49 - 6 x14*x53 - 10 x15*x16 - 18 x15*x17 - 12 x15*x28 + 8 x15*x31
      - 16 x15*x40 - 4 x15*x43 - 10 x15*x44 + 8 x15*x47 - 4 x16*x38 - 20 x16*x42
      - 20 x16*x46 + 12 x16*x49 + 4 x16*x51 + 12 x16*x53 + 20 x16*x54
      + 14 x17*x21 - 6 x17*x49 + 4 x18*x21 + 8 x18*x24 - 20 x18*x28 + 4 x18*x34
      + 16 x18*x35 + 16 x18*x37 + 6 x18*x43 - 8 x19*x27 + 6 x19*x29 - 10 x19*x31
      - 2 x19*x32 - 18 x19*x34 - 18 x19*x37 - 18 x19*x38 - 18 x19*x44
      - 4 x19*x51 - 2 x20*x25 - 10 x20*x26 + 8 x20*x29 + 12 x20*x31 + 10 x20*x33
      - 10 x20*x37 - 16 x20*x41 - 20 x20*x43 - 18 x20*x49 + 10 x21*x25
      - 18 x21*x33 - 6 x21*x48 - 18 x22*x24 + 2 x22*x25 + 12 x22*x29 - 2 x22*x32
      + 16 x22*x42 + 10 x22*x45 - 4 x22*x46 - 12 x22*x51 + 2 x23*x29
      - 16 x23*x36 + 8 x23*x39 + 12 x23*x47 + 8 x23*x49 - 16 x23*x50 + 4 x24*x25
      - 6 x24*x39 - 2 x24*x41 + 8 x24*x42 + 20 x24*x43 - 4 x25*x26 + 20 x25*x30
      - 18 x25*x36 + 6 x25*x47 + 12 x26*x27 - 4 x26*x28 + 12 x26*x38 + 2 x26*x52
      - 12 x26*x53 - 12 x27*x28 - 4 x27*x30 + 6 x27*x33 - 4 x27*x45 - 12 x27*x51
      - 12 x28*x37 + 6 x28*x40 + 20 x28*x42 + 12 x28*x43 - 2 x28*x52
      + 20 x28*x54 + 6 x29*x32 + 14 x29*x42 + 16 x29*x50 - 6 x29*x53
      - 14 x30*x31 + 16 x30*x42 - 2 x30*x50 + 16 x31*x47 - 2 x31*x48
      + 12 x32*x36 - 14 x32*x43 + 18 x32*x51 + 4 x33*x36 + 2 x33*x41 + 4 x33*x46
      - 10 x33*x54 + 16 x34*x35 - 20 x34*x40 - 10 x34*x44 - 4 x34*x45
      + 18 x34*x47 - 6 x34*x53 + 20 x35*x37 + 12 x35*x39 + 2 x35*x44
      + 18 x35*x50 - 8 x35*x51 + 18 x36*x41 - 4 x36*x46 - 6 x37*x47 - 12 x37*x51
      - 12 x37*x52 + 12 x38*x42 + 16 x38*x47 - 10 x39*x40 - 8 x39*x45
      - 18 x39*x48 - 12 x39*x50 + 18 x40*x41 - 6 x40*x50 + 16 x40*x52
      + 16 x40*x54 - 14 x41*x44 - 6 x41*x45 - 10 x42*x48 + 2 x42*x52
      + 12 x43*x45 + 16 x44*x45 - 6 x44*x49 - 12 x45*x54 - 18 x46*x48
      - 6 x46*x53 - 20 x47*x49 - 6 x49*x53 + 14 x50*x51 - 14 x52*x54 - 2 x53*x54
      ]/2
Subject To
 c0: - 2 x4 - x9 - x14 + x21 - x24 - x34 + 2 x36 + x39 + 2 x45 - x49 = 0
 c1: 2 x1 - 2 x10 - x12 - x15 - 2 x21 + 2 x29 + 2 x39 - x42 - x46 - x51 = -2
 c2: 2 x10 + 2 x22 + 2 x23 - x27 + x32 - x34 - 2 x35 + 2 x40 + x41 + 2 x50 = 0
 c3: 2 x5 + x8 + 2 x9 - x21 - x22 - 2 x26 - x28 + x35 - x51 - 2 x52 = -1
 c4: 2 x3 + 2 x6 + 2 x8 - x16 + x21 - x22 - x26 - x40 - 2 x42 - 2 x45 = -2
 c5: 2 x4 + 2 x9 + 2 x10 - x31 + 2 x34 + x38 - x42 + x46 + 2 x50 + 2 x54 = -2
 c6: - x1 - x6 + 2 x10 - x11 - 2 x14 + x18 + x35 + x41 + 2 x52 + 2 x54 = -2
 c7: - x5 - x9 + x12 + 2 x15 - x28 + 2 x32 - 2 x38 + 2 x39 + x41 - x48 = -2
 c8: - 2 x1 - 2 x3 + x4 + x12 - x20 + x24 + 2 x25 + x35 - x44 + x51 = -2
 c9: x1 + x12 + 2 x22 - x23 + x24 - x27 - x34 - 2 x36 + x43 + 2 x46 = -2
 c10: - 2 x2 + x10 + x18 + x19 - x22 + x29 - x34 + x38 + 2 x50 + 2 x52 = 1

Bounds
 0 <= x0 <= 1
 0 <= x1 <= 1
 0 <= x2 <= 1
 0 <= x3 <= 1
 0 <= x4 <= 1
 0 <= x5 <= 1
 0 <= x6 <= 1
 0 <= x7 <= 1
 0 <= x8 <= 1
 0 <= x9 <= 1
 0 <= x10 <= 1
 0 <= x11 <= 1
 0 <= x12 <= 1
 0 <= x13 <= 1
 0 <= x14 <= 1
 0 <= x15 <= 1
 0 <= x16 <= 1
 0 <= x17 <= 1
 0 <= x18 <= 1
 0 <= x19 <= 1
 0 <= x20 <= 1
 0 <= x21 <= 1
 0 <= x22 <= 1
 0 <= x23 <= 1
 0 <= x24 <= 1
 0 <= x25 <= 1
 0 <= x26 <= 1
 0 <= x27 <= 1
 0 <= x28 <= 1
 0 <= x29 <= 1
 0 <= x30 <= 1
 0 <= x31 <= 1
 0 <= x32 <= 1
 0 <= x33 <= 1
 0 <= x34 <= 1
 0 <= x35 <= 1
 0 <= x36 <= 1
 0 <= x37 <= 1
 0 <= x38 <= 1
 0 <= x39 <= 1
 0 <= x40 <= 1
 0 <= x41 <= 1
 0 <= x42 <= 1
 0 <= x43 <= 1
 0 <= x44 <= 1
 0 <= x45 <= 1
 0 <= x46 <= 1
 0 <= x47 <= 1
 0 <= x48 <= 1
 0 <= x49 <= 1
 0 <= x50 <= 1
 0 <= x51 <= 1
 0 <= x52 <= 1
 0 <= x53 <= 1
 0 <= x54 <= 1

Binaries
 x0 x1 x2 x3 x4 x5 x6 x7 x8 x9 x10 x11 x12 x13 x14 x15 x16 x17 x18 x19 x20 x21
 x22 x23 x24 x25 x26 x27 x28 x29 x30 x31 x32 x33 x34 x35 x36 x37 x38 x39 x40 x41
 x42 x43 x44 x45 x46 x47 x48 x49 x50 x51 x52 x53 x54
End
